p cnf 56 251
-11 -12 0
-11 -13 0
-11 -14 0
-12 -13 0
-12 -14 0
-13 -14 0
11 12 13 14 0
-15 -16 0
-15 -17 0
-15 -18 0
-16 -17 0
-16 -18 0
-17 -18 0
15 16 17 18 0
-19 -20 0
-19 -21 0
-19 -22 0
-20 -21 0
-20 -22 0
-21 -22 0
19 20 21 22 0
-11 -15 0
-11 -19 0
-15 -19 0
-12 -16 0
-12 -20 0
-16 -20 0
-13 -17 0
-13 -21 0
-17 -21 0
-14 -18 0
-14 -22 0
-18 -22 0
1 -11 -16 0
1 -11 -20 0
1 -15 -12 0
1 -15 -20 0
1 -19 -12 0
1 -19 -16 0
2 -11 -17 0
2 -11 -21 0
2 -15 -13 0
2 -15 -21 0
2 -19 -13 0
2 -19 -17 0
3 -11 -18 0
3 -11 -22 0
3 -15 -14 0
3 -15 -22 0
3 -19 -14 0
3 -19 -18 0
4 -11 0
4 -15 0
4 -19 0
5 -12 -17 0
5 -12 -21 0
5 -16 -13 0
5 -16 -21 0
5 -20 -13 0
5 -20 -17 0
6 -12 -18 0
6 -12 -22 0
6 -16 -14 0
6 -16 -22 0
6 -20 -14 0
6 -20 -18 0
7 -12 0
7 -16 0
7 -20 0
8 -13 -18 0
8 -13 -22 0
8 -17 -14 0
8 -17 -22 0
8 -21 -14 0
8 -21 -18 0
9 -13 0
9 -17 0
9 -21 0
10 -14 0
10 -18 0
10 -22 0
-23 -24 0
-23 -25 0
-23 -26 0
-23 -27 0
-23 -28 0
-23 -29 0
-24 -25 0
-24 -26 0
-24 -27 0
-24 -28 0
-24 -29 0
-25 -26 0
-25 -27 0
-25 -28 0
-25 -29 0
-26 -27 0
-26 -28 0
-26 -29 0
-27 -28 0
-27 -29 0
-28 -29 0
23 24 25 26 27 28 29 0
-30 -31 0
-30 -32 0
-30 -33 0
-30 -34 0
-30 -35 0
-30 -36 0
-31 -32 0
-31 -33 0
-31 -34 0
-31 -35 0
-31 -36 0
-32 -33 0
-32 -34 0
-32 -35 0
-32 -36 0
-33 -34 0
-33 -35 0
-33 -36 0
-34 -35 0
-34 -36 0
-35 -36 0
30 31 32 33 34 35 36 0
-37 -38 0
-37 -39 0
-37 -40 0
-37 -41 0
-37 -42 0
-37 -43 0
-38 -39 0
-38 -40 0
-38 -41 0
-38 -42 0
-38 -43 0
-39 -40 0
-39 -41 0
-39 -42 0
-39 -43 0
-40 -41 0
-40 -42 0
-40 -43 0
-41 -42 0
-41 -43 0
-42 -43 0
37 38 39 40 41 42 43 0
-44 -45 0
-44 -46 0
-44 -47 0
-44 -48 0
-44 -49 0
-45 -46 0
-45 -47 0
-45 -48 0
-45 -49 0
-46 -47 0
-46 -48 0
-46 -49 0
-47 -48 0
-47 -49 0
-48 -49 0
44 45 46 47 48 49 0
-50 -51 0
-50 -52 0
-50 -53 0
-50 -54 0
-50 -55 0
-50 -56 0
-51 -52 0
-51 -53 0
-51 -54 0
-51 -55 0
-51 -56 0
-52 -53 0
-52 -54 0
-52 -55 0
-52 -56 0
-53 -54 0
-53 -55 0
-53 -56 0
-54 -55 0
-54 -56 0
-55 -56 0
50 51 52 53 54 55 56 0
-1 -23 -30 0
-1 -24 -31 0
-1 -25 -32 0
-1 -26 -33 0
-1 -27 -34 0
-1 -28 -35 0
-1 -29 -36 0
-2 -23 -37 0
-2 -24 -38 0
-2 -25 -39 0
-2 -26 -40 0
-2 -27 -41 0
-2 -28 -42 0
-2 -29 -43 0
-3 -23 -44 0
-3 -24 -45 0
-3 -25 -46 0
-3 -26 -47 0
-3 -27 -48 0
-3 -29 -49 0
-4 -23 -50 0
-4 -24 -51 0
-4 -25 -52 0
-4 -26 -53 0
-4 -27 -54 0
-4 -28 -55 0
-4 -29 -56 0
-5 -30 -37 0
-5 -31 -38 0
-5 -32 -39 0
-5 -33 -40 0
-5 -34 -41 0
-5 -35 -42 0
-5 -36 -43 0
-6 -30 -44 0
-6 -31 -45 0
-6 -32 -46 0
-6 -33 -47 0
-6 -34 -48 0
-6 -36 -49 0
-7 -30 -50 0
-7 -31 -51 0
-7 -32 -52 0
-7 -33 -53 0
-7 -34 -54 0
-7 -35 -55 0
-7 -36 -56 0
-8 -37 -44 0
-8 -38 -45 0
-8 -39 -46 0
-8 -40 -47 0
-8 -41 -48 0
-8 -43 -49 0
-9 -37 -50 0
-9 -38 -51 0
-9 -39 -52 0
-9 -40 -53 0
-9 -41 -54 0
-9 -42 -55 0
-9 -43 -56 0
-10 -44 -50 0
-10 -45 -51 0
-10 -46 -52 0
-10 -47 -53 0
-10 -48 -54 0
-10 -49 -56 0
